benchmarks/or-tools/instances/pigeonsplus/pigeonsPlus-10-3.res
REGULAR
REGULAR
REGULAR
REGULAR
REGULAR
REGULAR
REGULAR
REGULAR
REGULAR
REGULAR
REGULAR
REGULAR
REGULAR
REGULAR
REGULAR
REGULAR
REGULAR
REGULAR
REGULAR
REGULAR
REGULAR
REGULAR
REGULAR
REGULAR
REGULAR
REGULAR
REGULAR
REGULAR
REGULAR
REGULAR
REGULAR
REGULAR
REGULAR
REGULAR
REGULAR
REGULAR
REGULAR
REGULAR
REGULAR
REGULAR
REGULAR
REGULAR
REGULAR
REGULAR
REGULAR
REGULAR
REGULAR
REGULAR
REGULAR
REGULAR
REGULAR
REGULAR
REGULAR
REGULAR
REGULAR
REGULAR
REGULAR
REGULAR
REGULAR
REGULAR
REGULAR
REGULAR
REGULAR
REGULAR
REGULAR
=====UNSATISFIABLE=====

%%  runtime:       8.786 (8786.040 ms)
%%  solvetime:     8.738 (8738.273 ms)
%%  solutions:     0
%%  variables:     40
%%  propagators:   65
%%  propagations:  16871463
%%  nodes:         725759
%%  failures:      362880
%%  restarts:      0
%%  peak depth:    17

GECODE_TUPLESET_MEM
GECODE_TUPLESET_MEM
GECODE_TUPLESET_MEM
GECODE_TUPLESET_MEM
GECODE_TUPLESET_MEM
GECODE_TUPLESET_MEM
GECODE_TUPLESET_MEM
GECODE_TUPLESET_MEM
GECODE_TUPLESET_MEM
GECODE_TUPLESET_MEM
GECODE_TUPLESET_MEM
GECODE_TUPLESET_MEM
GECODE_TUPLESET_MEM
GECODE_TUPLESET_MEM
GECODE_TUPLESET_MEM
GECODE_TUPLESET_MEM
GECODE_TUPLESET_MEM
GECODE_TUPLESET_MEM
GECODE_TUPLESET_MEM
GECODE_TUPLESET_MEM
GECODE_TUPLESET_MEM
GECODE_TUPLESET_MEM
GECODE_TUPLESET_MEM
GECODE_TUPLESET_MEM
GECODE_TUPLESET_MEM
GECODE_TUPLESET_MEM
GECODE_TUPLESET_MEM
GECODE_TUPLESET_MEM
GECODE_TUPLESET_MEM
GECODE_TUPLESET_MEM
GECODE_TUPLESET_MEM
GECODE_TUPLESET_MEM
GECODE_TUPLESET_MEM
GECODE_TUPLESET_MEM
GECODE_TUPLESET_MEM
GECODE_TUPLESET_MEM
GECODE_TUPLESET_MEM
GECODE_TUPLESET_MEM
GECODE_TUPLESET_MEM
GECODE_TUPLESET_MEM
GECODE_TUPLESET_MEM
GECODE_TUPLESET_MEM
GECODE_TUPLESET_MEM
GECODE_TUPLESET_MEM
GECODE_TUPLESET_MEM
GECODE_TUPLESET_MEM
GECODE_TUPLESET_MEM
GECODE_TUPLESET_MEM
GECODE_TUPLESET_MEM
GECODE_TUPLESET_MEM
GECODE_TUPLESET_MEM
GECODE_TUPLESET_MEM
GECODE_TUPLESET_MEM
GECODE_TUPLESET_MEM
GECODE_TUPLESET_MEM
GECODE_TUPLESET_MEM
GECODE_TUPLESET_MEM
GECODE_TUPLESET_MEM
GECODE_TUPLESET_MEM
GECODE_TUPLESET_MEM
GECODE_TUPLESET_MEM
GECODE_TUPLESET_MEM
GECODE_TUPLESET_MEM
GECODE_TUPLESET_MEM
GECODE_TUPLESET_MEM
=====UNKNOWN=====

%%  runtime:       16:40.007 (1000007.606 ms)
%%  solvetime:     16:40.000 (1000000.270 ms)
%%  solutions:     0
%%  variables:     40
%%  propagators:   65
%%  propagations:  1469256508
%%  nodes:         69050249
%%  failures:      34525120
%%  restarts:      0
%%  peak depth:    18

GECODE_TUPLESET_SPEED
GECODE_TUPLESET_SPEED
GECODE_TUPLESET_SPEED
GECODE_TUPLESET_SPEED
GECODE_TUPLESET_SPEED
GECODE_TUPLESET_SPEED
GECODE_TUPLESET_SPEED
GECODE_TUPLESET_SPEED
GECODE_TUPLESET_SPEED
GECODE_TUPLESET_SPEED
GECODE_TUPLESET_SPEED
GECODE_TUPLESET_SPEED
GECODE_TUPLESET_SPEED
GECODE_TUPLESET_SPEED
GECODE_TUPLESET_SPEED
GECODE_TUPLESET_SPEED
GECODE_TUPLESET_SPEED
GECODE_TUPLESET_SPEED
GECODE_TUPLESET_SPEED
GECODE_TUPLESET_SPEED
GECODE_TUPLESET_SPEED
GECODE_TUPLESET_SPEED
GECODE_TUPLESET_SPEED
GECODE_TUPLESET_SPEED
GECODE_TUPLESET_SPEED
GECODE_TUPLESET_SPEED
GECODE_TUPLESET_SPEED
GECODE_TUPLESET_SPEED
GECODE_TUPLESET_SPEED
GECODE_TUPLESET_SPEED
GECODE_TUPLESET_SPEED
GECODE_TUPLESET_SPEED
GECODE_TUPLESET_SPEED
GECODE_TUPLESET_SPEED
GECODE_TUPLESET_SPEED
GECODE_TUPLESET_SPEED
GECODE_TUPLESET_SPEED
GECODE_TUPLESET_SPEED
GECODE_TUPLESET_SPEED
GECODE_TUPLESET_SPEED
GECODE_TUPLESET_SPEED
GECODE_TUPLESET_SPEED
GECODE_TUPLESET_SPEED
GECODE_TUPLESET_SPEED
GECODE_TUPLESET_SPEED
GECODE_TUPLESET_SPEED
GECODE_TUPLESET_SPEED
GECODE_TUPLESET_SPEED
GECODE_TUPLESET_SPEED
GECODE_TUPLESET_SPEED
GECODE_TUPLESET_SPEED
GECODE_TUPLESET_SPEED
GECODE_TUPLESET_SPEED
GECODE_TUPLESET_SPEED
GECODE_TUPLESET_SPEED
GECODE_TUPLESET_SPEED
GECODE_TUPLESET_SPEED
GECODE_TUPLESET_SPEED
GECODE_TUPLESET_SPEED
GECODE_TUPLESET_SPEED
GECODE_TUPLESET_SPEED
GECODE_TUPLESET_SPEED
GECODE_TUPLESET_SPEED
GECODE_TUPLESET_SPEED
GECODE_TUPLESET_SPEED
=====UNKNOWN=====

%%  runtime:       16:40.008 (1000008.423 ms)
%%  solvetime:     16:40.000 (1000000.137 ms)
%%  solutions:     0
%%  variables:     40
%%  propagators:   65
%%  propagations:  560472783
%%  nodes:         45792720
%%  failures:      22896356
%%  restarts:      0
%%  peak depth:    18

COMPACT_TABLE
COMPACT_TABLE
COMPACT_TABLE
COMPACT_TABLE
COMPACT_TABLE
COMPACT_TABLE
COMPACT_TABLE
COMPACT_TABLE
COMPACT_TABLE
COMPACT_TABLE
COMPACT_TABLE
COMPACT_TABLE
COMPACT_TABLE
COMPACT_TABLE
COMPACT_TABLE
COMPACT_TABLE
COMPACT_TABLE
COMPACT_TABLE
COMPACT_TABLE
COMPACT_TABLE
COMPACT_TABLE
COMPACT_TABLE
COMPACT_TABLE
COMPACT_TABLE
COMPACT_TABLE
COMPACT_TABLE
COMPACT_TABLE
COMPACT_TABLE
COMPACT_TABLE
COMPACT_TABLE
COMPACT_TABLE
COMPACT_TABLE
COMPACT_TABLE
COMPACT_TABLE
COMPACT_TABLE
COMPACT_TABLE
COMPACT_TABLE
COMPACT_TABLE
COMPACT_TABLE
COMPACT_TABLE
COMPACT_TABLE
COMPACT_TABLE
COMPACT_TABLE
COMPACT_TABLE
COMPACT_TABLE
COMPACT_TABLE
COMPACT_TABLE
COMPACT_TABLE
COMPACT_TABLE
COMPACT_TABLE
COMPACT_TABLE
COMPACT_TABLE
COMPACT_TABLE
COMPACT_TABLE
COMPACT_TABLE
COMPACT_TABLE
COMPACT_TABLE
COMPACT_TABLE
COMPACT_TABLE
COMPACT_TABLE
COMPACT_TABLE
COMPACT_TABLE
COMPACT_TABLE
COMPACT_TABLE
COMPACT_TABLE
=====UNSATISFIABLE=====

%%  runtime:       9:02.939 (542939.107 ms)
%%  solvetime:     9:02.919 (542919.574 ms)
%%  solutions:     0
%%  variables:     40
%%  propagators:   65
%%  propagations:  725776240
%%  nodes:         92897279
%%  failures:      46448640
%%  restarts:      0
%%  peak depth:    18

